S = 4;
start = [|8,0,0,15,0,6,0,0,0,0,0,0,9,16,0,0|
0,0,3,13,8,0,0,0,0,0,11,15,0,0,0,0|
5,2,0,0,0,0,0,0,0,12,4,6,0,0,0,0|
0,0,6,0,0,0,5,0,0,9,0,8,0,0,0,0|
3,0,0,0,0,0,0,0,0,0,0,0,0,8,0,15|
10,0,0,0,0,0,0,11,0,0,0,9,2,0,0,7|
4,7,0,0,0,0,2,10,0,0,0,1,14,0,9,3|
0,0,0,0,0,0,0,16,10,7,3,12,0,0,13,0|
6,0,0,0,11,0,0,0,0,0,0,0,0,12,0,10|
0,0,0,10,0,9,6,0,0,0,0,0,13,0,0,14|
0,0,0,0,16,0,0,0,6,14,0,0,15,7,0,0|
0,0,8,4,0,0,0,14,0,0,0,0,0,5,1,9|
0,0,10,3,0,0,0,0,0,8,9,0,7,13,0,0|
0,0,2,7,1,0,16,0,0,6,0,10,4,0,0,0|
0,0,5,0,0,0,0,0,0,0,2,0,0,0,0,12|
0,6,0,0,0,0,8,0,0,0,0,0,0,9,0,0|];